* #variable= 87 #constraint= 118 
-1 x59 -1 x1 -1 x30 >= -2 ;
-1 x59 +1 x1 +1 x30 >= 0 ;
+1 x59 -1 x1 +1 x30 >= 0 ;
+1 x59 +1 x1 -1 x30 >= 0 ;
-1 x60 -1 x2 -1 x31 >= -2 ;
-1 x60 +1 x2 +1 x31 >= 0 ;
+1 x60 -1 x2 +1 x31 >= 0 ;
+1 x60 +1 x2 -1 x31 >= 0 ;
-1 x61 -1 x3 -1 x32 >= -2 ;
-1 x61 +1 x3 +1 x32 >= 0 ;
+1 x61 -1 x3 +1 x32 >= 0 ;
+1 x61 +1 x3 -1 x32 >= 0 ;
-1 x62 -1 x4 -1 x33 >= -2 ;
-1 x62 +1 x4 +1 x33 >= 0 ;
+1 x62 -1 x4 +1 x33 >= 0 ;
+1 x62 +1 x4 -1 x33 >= 0 ;
-1 x63 -1 x5 -1 x34 >= -2 ;
-1 x63 +1 x5 +1 x34 >= 0 ;
+1 x63 -1 x5 +1 x34 >= 0 ;
+1 x63 +1 x5 -1 x34 >= 0 ;
-1 x64 -1 x6 -1 x35 >= -2 ;
-1 x64 +1 x6 +1 x35 >= 0 ;
+1 x64 -1 x6 +1 x35 >= 0 ;
+1 x64 +1 x6 -1 x35 >= 0 ;
-1 x65 -1 x7 -1 x36 >= -2 ;
-1 x65 +1 x7 +1 x36 >= 0 ;
+1 x65 -1 x7 +1 x36 >= 0 ;
+1 x65 +1 x7 -1 x36 >= 0 ;
-1 x66 -1 x8 -1 x37 >= -2 ;
-1 x66 +1 x8 +1 x37 >= 0 ;
+1 x66 -1 x8 +1 x37 >= 0 ;
+1 x66 +1 x8 -1 x37 >= 0 ;
-1 x67 -1 x9 -1 x38 >= -2 ;
-1 x67 +1 x9 +1 x38 >= 0 ;
+1 x67 -1 x9 +1 x38 >= 0 ;
+1 x67 +1 x9 -1 x38 >= 0 ;
-1 x68 -1 x10 -1 x39 >= -2 ;
-1 x68 +1 x10 +1 x39 >= 0 ;
+1 x68 -1 x10 +1 x39 >= 0 ;
+1 x68 +1 x10 -1 x39 >= 0 ;
-1 x69 -1 x11 -1 x40 >= -2 ;
-1 x69 +1 x11 +1 x40 >= 0 ;
+1 x69 -1 x11 +1 x40 >= 0 ;
+1 x69 +1 x11 -1 x40 >= 0 ;
-1 x70 -1 x12 -1 x41 >= -2 ;
-1 x70 +1 x12 +1 x41 >= 0 ;
+1 x70 -1 x12 +1 x41 >= 0 ;
+1 x70 +1 x12 -1 x41 >= 0 ;
-1 x71 -1 x13 -1 x42 >= -2 ;
-1 x71 +1 x13 +1 x42 >= 0 ;
+1 x71 -1 x13 +1 x42 >= 0 ;
+1 x71 +1 x13 -1 x42 >= 0 ;
-1 x72 -1 x14 -1 x43 >= -2 ;
-1 x72 +1 x14 +1 x43 >= 0 ;
+1 x72 -1 x14 +1 x43 >= 0 ;
+1 x72 +1 x14 -1 x43 >= 0 ;
-1 x73 -1 x15 -1 x44 >= -2 ;
-1 x73 +1 x15 +1 x44 >= 0 ;
+1 x73 -1 x15 +1 x44 >= 0 ;
+1 x73 +1 x15 -1 x44 >= 0 ;
-1 x74 -1 x16 -1 x45 >= -2 ;
-1 x74 +1 x16 +1 x45 >= 0 ;
+1 x74 -1 x16 +1 x45 >= 0 ;
+1 x74 +1 x16 -1 x45 >= 0 ;
-1 x75 -1 x17 -1 x46 >= -2 ;
-1 x75 +1 x17 +1 x46 >= 0 ;
+1 x75 -1 x17 +1 x46 >= 0 ;
+1 x75 +1 x17 -1 x46 >= 0 ;
-1 x76 -1 x18 -1 x47 >= -2 ;
-1 x76 +1 x18 +1 x47 >= 0 ;
+1 x76 -1 x18 +1 x47 >= 0 ;
+1 x76 +1 x18 -1 x47 >= 0 ;
-1 x77 -1 x19 -1 x48 >= -2 ;
-1 x77 +1 x19 +1 x48 >= 0 ;
+1 x77 -1 x19 +1 x48 >= 0 ;
+1 x77 +1 x19 -1 x48 >= 0 ;
-1 x78 -1 x20 -1 x49 >= -2 ;
-1 x78 +1 x20 +1 x49 >= 0 ;
+1 x78 -1 x20 +1 x49 >= 0 ;
+1 x78 +1 x20 -1 x49 >= 0 ;
-1 x79 -1 x21 -1 x50 >= -2 ;
-1 x79 +1 x21 +1 x50 >= 0 ;
+1 x79 -1 x21 +1 x50 >= 0 ;
+1 x79 +1 x21 -1 x50 >= 0 ;
-1 x80 -1 x22 -1 x51 >= -2 ;
-1 x80 +1 x22 +1 x51 >= 0 ;
+1 x80 -1 x22 +1 x51 >= 0 ;
+1 x80 +1 x22 -1 x51 >= 0 ;
-1 x81 -1 x23 -1 x52 >= -2 ;
-1 x81 +1 x23 +1 x52 >= 0 ;
+1 x81 -1 x23 +1 x52 >= 0 ;
+1 x81 +1 x23 -1 x52 >= 0 ;
-1 x82 -1 x24 -1 x53 >= -2 ;
-1 x82 +1 x24 +1 x53 >= 0 ;
+1 x82 -1 x24 +1 x53 >= 0 ;
+1 x82 +1 x24 -1 x53 >= 0 ;
-1 x83 -1 x25 -1 x54 >= -2 ;
-1 x83 +1 x25 +1 x54 >= 0 ;
+1 x83 -1 x25 +1 x54 >= 0 ;
+1 x83 +1 x25 -1 x54 >= 0 ;
-1 x84 -1 x26 -1 x55 >= -2 ;
-1 x84 +1 x26 +1 x55 >= 0 ;
+1 x84 -1 x26 +1 x55 >= 0 ;
+1 x84 +1 x26 -1 x55 >= 0 ;
-1 x85 -1 x27 -1 x56 >= -2 ;
-1 x85 +1 x27 +1 x56 >= 0 ;
+1 x85 -1 x27 +1 x56 >= 0 ;
+1 x85 +1 x27 -1 x56 >= 0 ;
-1 x86 -1 x28 -1 x57 >= -2 ;
-1 x86 +1 x28 +1 x57 >= 0 ;
+1 x86 -1 x28 +1 x57 >= 0 ;
+1 x86 +1 x28 -1 x57 >= 0 ;
-1 x87 -1 x29 -1 x58 >= -2 ;
-1 x87 +1 x29 +1 x58 >= 0 ;
+1 x87 -1 x29 +1 x58 >= 0 ;
+1 x87 +1 x29 -1 x58 >= 0 ;
+1 x1 -1 x30 +2 x2 -2 x31 +4 x3 -4 x32 +8 x4 -8 x33 +16 x5 -16 x34 +32 x6 -32 x35 +64 x7 -64 x36 +128 x8 -128 x37 +256 x9 -256 x38 +512 x10 -512 x39 +1024 x11 -1024 x40 +2048 x12 -2048 x41 +4096 x13 -4096 x42 +8192 x14 -8192 x43 +16384 x15 -16384 x44 +32768 x16 -32768 x45 +65536 x17 -65536 x46 +131072 x18 -131072 x47 +262144 x19 -262144 x48 +524288 x20 -524288 x49 +1048576 x21 -1048576 x50 +2097152 x22 -2097152 x51 +4194304 x23 -4194304 x52 +8388608 x24 -8388608 x53 +16777216 x25 -16777216 x54 +33554432 x26 -33554432 x55 +67108864 x27 -67108864 x56 +134217728 x28 -134217728 x57 +268435456 x29 -268435456 x58 = 0 ;
+1 x59 +1 x60 +1 x61 +1 x62 +1 x63 +1 x64 +1 x65 +1 x66 +1 x67 +1 x68 +1 x69 +1 x70 +1 x71 +1 x72 +1 x73 +1 x74 +1 x75 +1 x76 +1 x77 +1 x78 +1 x79 +1 x80 +1 x81 +1 x82 +1 x83 +1 x84 +1 x85 +1 x86 +1 x87 >= 1 ;
